c pcminimize - minimizing a CNF with respect to propagation completeness by iterative removing of absorbed clauses.
c Petr Kucera, 2016-2021
c Version 2.7, revision 59, git hash 4910a71, date 2024-07-16 20:17:42 +0200
p cnf 334 410
251 -252 0
205 -252 0
-205 -253 0
252 253 -254 0
254 -255 0
34 -255 0
-205 -256 0
256 -257 0
-34 -257 0
255 257 -258 0
258 -259 0
201 -259 0
254 -261 0
260 -261 0
261 -262 0
-201 -262 0
259 262 -263 0
-46 -264 0
-100 -264 0
-185 -264 0
265 -267 0
266 -267 0
263 -268 0
264 -268 0
267 -268 0
268 -269 0
237 -269 0
31 -270 0
100 -270 0
110 -270 0
270 -271 0
164 -271 0
31 -272 0
110 -272 0
272 -273 0
100 -273 0
266 -274 0
265 -274 0
274 -275 0
-100 -275 0
273 275 -276 0
276 -277 0
-164 -277 0
271 277 -278 0
46 -280 0
279 -280 0
280 -281 0
185 -281 0
282 -283 0
283 -284 0
-185 -284 0
281 284 -285 0
254 -286 0
278 -286 0
285 -286 0
286 -288 0
287 -288 0
288 -289 0
34 -289 0
256 -290 0
201 -290 0
254 -291 0
-201 -291 0
290 291 -292 0
46 -293 0
185 -293 0
282 -294 0
-185 -294 0
293 294 -295 0
-100 -296 0
266 -297 0
265 -297 0
292 -298 0
295 -298 0
296 -298 0
297 -298 0
298 -299 0
-34 -299 0
300 -301 0
-237 -301 0
303 -304 0
207 -304 0
-207 -305 0
308 -321 0
309 -321 0
310 -321 0
311 -321 0
312 -321 0
313 -321 0
314 -321 0
315 -321 0
316 -321 0
317 -321 0
318 -321 0
319 -321 0
320 -321 0
302 -322 0
306 -322 0
321 -322 0
-1 0
-2 0
3 0
-4 0
-5 0
6 0
-7 0
8 0
9 0
10 0
12 0
-13 0
14 0
15 0
16 0
17 0
18 0
-19 0
-20 0
-21 0
22 0
-23 0
-24 0
-26 0
27 0
28 0
-29 0
30 0
-32 0
33 0
-35 0
-36 0
37 0
-38 0
39 0
-41 0
-42 0
-43 0
44 0
-45 0
47 0
48 0
49 0
-50 0
51 0
-52 0
53 0
54 0
-55 0
-56 0
57 0
58 0
-59 0
60 0
-61 0
-62 0
63 0
64 0
-65 0
66 0
-67 0
-68 0
69 0
70 0
-71 0
72 0
73 0
74 0
-75 0
76 0
-77 0
-78 0
-79 0
80 0
-81 0
82 0
-84 0
85 0
86 0
-87 0
88 0
-89 0
90 0
-91 0
92 0
93 0
94 0
95 0
-96 0
-97 0
98 0
-99 0
-101 0
-102 0
103 0
-104 0
-106 0
-108 0
109 0
111 0
-112 0
113 0
-114 0
115 0
116 0
117 0
118 0
120 0
-122 0
123 0
-124 0
125 0
126 0
127 0
128 0
-129 0
-130 0
-131 0
-132 0
133 0
134 0
136 0
-137 0
139 0
-140 0
141 0
142 0
143 0
-144 0
145 0
146 0
-147 0
148 0
-149 0
150 0
-151 0
152 0
-153 0
-154 0
-155 0
158 0
159 0
160 0
-161 0
162 0
163 0
-165 0
-166 0
167 0
168 0
-169 0
-170 0
-171 0
173 0
174 0
-175 0
176 0
177 0
-178 0
-179 0
180 0
-181 0
-182 0
183 0
-184 0
186 0
-187 0
-188 0
-189 0
190 0
-191 0
192 0
-193 0
-194 0
195 0
-196 0
197 0
-198 0
-199 0
200 0
-202 0
203 0
204 0
206 0
-208 0
209 0
-210 0
211 0
-212 0
214 0
-215 0
-216 0
-217 0
-218 0
-220 0
-221 0
-222 0
223 0
-225 0
226 0
227 0
228 0
229 0
-230 0
-231 0
232 0
-233 0
234 0
-235 0
-236 0
-238 0
-239 0
-240 0
241 0
-242 0
-243 0
244 0
245 0
-246 0
247 0
-248 0
249 0
250 0
-332 333 0
-330 332 0
-328 329 0
-307 322 0
-329 330 0
-299 300 0
-164 271 0
-272 273 0
-276 277 0
237 301 0
-300 301 0
40 251 0
-275 276 0
-266 267 274 297 0
-297 298 0
-110 266 270 272 0
-296 298 0
-295 298 0
-294 295 0
-259 263 0
-293 295 0
-261 262 0
-290 292 0
-289 300 0
-237 269 0
11 303 0
-288 289 0
-279 280 0
-271 278 0
-303 304 0
110 266 0
-286 288 0
46 264 282 0
-258 259 0
-185 281 293 0
-333 334 0
-280 281 0
-31 265 270 272 0
-252 254 0
-322 323 0
-265 267 274 297 0
-253 254 0
207 305 0
-274 275 0
-254 255 261 286 291 0
-281 285 0
-201 259 287 290 0
-291 292 0
-34 255 260 289 0
-46 280 282 293 0
-267 268 0
34 257 260 299 0
-257 258 0
100 264 275 296 0
-273 276 0
-278 286 0
-100 270 273 0
-251 252 0
87 327 0
-268 269 0
25 279 0
-282 283 294 0
-298 299 0
-283 284 0
-284 285 0
185 264 284 294 0
-256 257 290 0
-263 268 0
187 331 0
-277 278 0
-287 288 0
-285 286 0
-292 298 0
201 262 287 291 0
-205 252 0
205 253 256 0
-207 304 0
-262 263 0
217 328 0
-270 271 0
84 324 0
-264 268 0
-324 326 0
-255 258 0
-8 325 0
-260 261 0
31 265 0
199 307 0
